GLPSOL--GLPK LP/MIP Solver 5.0
Parameter(s) specified in the command line:
 --lp ../modeles/3_199.lp --log 3_199.log
Reading problem data from '../modeles/3_199.lp'...
610 rows, 1200 columns, 4194 non-zeros
597 integer variables, all of which are binary
1819 lines were read
GLPK Integer Optimizer 5.0
610 rows, 1200 columns, 4194 non-zeros
597 integer variables, all of which are binary
Preprocessing...
594 constraint coefficient(s) were reduced
610 rows, 1197 columns, 4191 non-zeros
597 integer variables, all of which are binary
Scaling...
 A: min|aij| =  1.010e-04  max|aij| =  4.000e+00  ratio =  3.960e+04
GM: min|aij| =  7.089e-02  max|aij| =  1.411e+01  ratio =  1.990e+02
EQ: min|aij| =  5.025e-03  max|aij| =  1.000e+00  ratio =  1.990e+02
2N: min|aij| =  3.906e-03  max|aij| =  1.737e+00  ratio =  4.446e+02
Constructing initial basis...
Size of triangular part is 610
Solving LP relaxation...
GLPK Simplex Optimizer 5.0
610 rows, 1197 columns, 4191 non-zeros
      0: obj =   6.000000000e+00 inf =   1.450e+01 (7)
     38: obj =   4.998611111e-01 inf =   0.000e+00 (0)
*   150: obj =  -1.731870560e+00 inf =   1.901e-15 (0)
OPTIMAL LP SOLUTION FOUND
Integer optimization begins...
Long-step dual simplex will be used
+   150: mip =     not found yet >=              -inf        (1; 0)
+   302: >>>>>  -1.731626884e+00 >=  -1.731870560e+00 < 0.1% (147; 0)
+   303: >>>>>  -1.731870560e+00 >=  -1.731870560e+00 < 0.1% (2; 181)
+   303: mip =  -1.731870560e+00 >=     tree is empty   0.0% (0; 293)
INTEGER OPTIMAL SOLUTION FOUND
Time used:   0.1 secs
Memory used: 1.9 Mb (1947041 bytes)
